p cnf 145 362
a 8 6 4 2 70 74 81 44 42 40 38 36 34 32 30 28 135 1 17 22 27 0
d 18 70 1 0
d 46 81 22 0
d 23 74 17 0
d 134 135 27 0
d 3 2 0
d 5 4 0
d 7 6 0
d 9 8 0
d 10 8 0
d 11 8 0
d 12 6 8 0
d 13 4 6 8 0
d 14 2 4 6 8 0
d 15 1 2 4 6 8 0
d 16 1 2 4 6 8 0
d 19 17 70 1 0
d 20 17 70 1 0
d 21 1 2 4 6 8 17 70 0
d 24 22 74 17 0
d 25 22 74 17 0
d 26 1 2 4 6 8 17 70 22 74 0
d 29 28 0
d 31 30 0
d 33 32 0
d 35 34 0
d 37 36 0
d 39 38 0
d 41 40 0
d 43 42 0
d 45 44 0
d 47 44 81 22 0
d 48 42 44 81 22 0
d 49 40 42 44 81 22 0
d 50 38 40 42 44 81 22 0
d 51 36 38 40 42 44 81 22 0
d 52 34 36 38 40 42 44 81 22 0
d 53 32 34 36 38 40 42 44 81 22 0
d 54 30 32 34 36 38 40 42 44 81 22 0
d 55 28 30 32 34 36 38 40 42 44 81 22 0
d 56 27 28 30 32 34 36 38 40 42 44 81 22 0
d 57 27 28 30 32 34 36 38 40 42 44 81 22 0
d 58 1 2 4 6 8 17 70 22 74 27 28 30 32 34 36 38 40 42 44 81 0
d 59 8 0
d 60 8 0
d 61 6 8 0
d 62 6 8 0
d 63 8 6 0
d 64 4 6 8 0
d 65 4 6 8 0
d 66 8 6 4 0
d 67 2 4 6 8 0
d 68 2 4 6 8 0
d 69 8 6 4 2 0
d 71 70 2 4 6 8 0
d 72 70 2 4 6 8 0
d 73 8 6 4 2 70 0
d 75 74 70 1 0
d 76 70 0
d 77 70 2 4 6 8 0
d 78 74 70 2 4 6 8 0
d 79 74 70 1 2 4 6 8 0
d 80 8 6 4 2 70 74 1 0
d 82 81 74 17 0
d 83 74 0
d 84 74 70 2 4 6 8 0
d 85 81 74 70 2 4 6 8 0
d 86 81 74 17 70 2 4 6 8 0
d 87 8 6 4 2 70 74 1 81 17 0
d 88 44 81 22 0
d 89 81 0
d 90 81 74 70 2 4 6 8 0
d 91 44 81 74 70 2 4 6 8 0
d 92 44 81 22 74 70 2 4 6 8 0
d 93 8 6 4 2 70 74 1 81 17 44 22 0
d 94 42 44 81 22 0
d 95 44 81 74 70 2 4 6 8 0
d 96 42 44 81 74 70 2 4 6 8 0
d 97 42 44 81 22 74 70 2 4 6 8 0
d 98 8 6 4 2 70 74 1 81 17 44 22 42 0
d 99 40 42 44 81 22 0
d 100 42 44 81 74 70 2 4 6 8 0
d 101 40 42 44 81 74 70 2 4 6 8 0
d 102 40 42 44 81 22 74 70 2 4 6 8 0
d 103 8 6 4 2 70 74 1 81 17 44 22 42 40 0
d 104 38 40 42 44 81 22 0
d 105 40 42 44 81 74 70 2 4 6 8 0
d 106 38 40 42 44 81 74 70 2 4 6 8 0
d 107 38 40 42 44 81 22 74 70 2 4 6 8 0
d 108 8 6 4 2 70 74 1 81 17 44 22 42 40 38 0
d 109 36 38 40 42 44 81 22 0
d 110 38 40 42 44 81 74 70 2 4 6 8 0
d 111 36 38 40 42 44 81 74 70 2 4 6 8 0
d 112 36 38 40 42 44 81 22 74 70 2 4 6 8 0
d 113 8 6 4 2 70 74 1 81 17 44 22 42 40 38 36 0
d 114 34 36 38 40 42 44 81 22 0
d 115 36 38 40 42 44 81 74 70 2 4 6 8 0
d 116 34 36 38 40 42 44 81 74 70 2 4 6 8 0
d 117 34 36 38 40 42 44 81 22 74 70 2 4 6 8 0
d 118 8 6 4 2 70 74 1 81 17 44 22 42 40 38 36 34 0
d 119 32 34 36 38 40 42 44 81 22 0
d 120 34 36 38 40 42 44 81 74 70 2 4 6 8 0
d 121 32 34 36 38 40 42 44 81 74 70 2 4 6 8 0
d 122 32 34 36 38 40 42 44 81 22 74 70 2 4 6 8 0
d 123 8 6 4 2 70 74 1 81 17 44 22 42 40 38 36 34 32 0
d 124 30 32 34 36 38 40 42 44 81 22 0
d 125 32 34 36 38 40 42 44 81 74 70 2 4 6 8 0
d 126 30 32 34 36 38 40 42 44 81 74 70 2 4 6 8 0
d 127 30 32 34 36 38 40 42 44 81 22 74 70 2 4 6 8 0
d 128 8 6 4 2 70 74 1 81 17 44 22 42 40 38 36 34 32 30 0
d 129 28 30 32 34 36 38 40 42 44 81 22 0
d 130 30 32 34 36 38 40 42 44 81 74 70 2 4 6 8 0
d 131 28 30 32 34 36 38 40 42 44 81 74 70 2 4 6 8 0
d 132 28 30 32 34 36 38 40 42 44 81 22 74 70 2 4 6 8 0
d 133 8 6 4 2 70 74 1 81 17 44 22 42 40 38 36 34 32 30 28 0
d 136 28 30 32 34 36 38 40 42 44 81 74 70 2 4 6 8 0
d 137 135 28 30 32 34 36 38 40 42 44 81 74 70 2 4 6 8 0
d 138 135 27 28 30 32 34 36 38 40 42 44 81 74 70 2 4 6 8 0
d 139 8 6 4 2 70 74 1 81 17 44 22 42 40 38 36 34 32 30 28 135 27 0
d 140 135 0
d 141 135 28 30 32 34 36 38 40 42 44 81 22 0
d 142 135 28 30 32 34 36 38 40 42 44 81 74 70 2 4 6 8 0
d 143 135 28 30 32 34 36 38 40 42 44 81 22 74 70 2 4 6 8 0
d 144 8 6 4 2 70 74 1 81 17 44 22 42 40 38 36 34 32 30 28 135 27 0
d 145 1 2 4 6 8 17 70 22 74 27 28 30 32 34 36 38 40 42 44 81 135 0
3 2 0
-3 -2 0
5 4 0
-5 -4 0
7 6 0
-7 -6 0
9 8 0
-9 -8 0
10 -8 0
10 -9 0
-10 8 9 0
-11 9 0
-11 10 0
11 -9 -10 0
-12 7 0
-12 11 0
12 -7 -11 0
-13 5 0
-13 12 0
13 -5 -12 0
-14 3 0
-14 13 0
14 -3 -13 0
15 -1 -14 0
15 1 14 0
-15 -1 14 0
-15 1 -14 0
16 15 0
-16 -15 0
19 -17 -18 0
19 17 18 0
-19 -17 18 0
-19 17 -18 0
20 19 0
-20 -19 0
21 -16 0
21 -20 0
-21 16 20 0
24 -22 -23 0
24 22 23 0
-24 -22 23 0
-24 22 -23 0
25 24 0
-25 -24 0
26 -21 0
26 -25 0
-26 21 25 0
29 28 0
-29 -28 0
31 30 0
-31 -30 0
33 32 0
-33 -32 0
35 34 0
-35 -34 0
37 36 0
-37 -36 0
39 38 0
-39 -38 0
41 40 0
-41 -40 0
43 42 0
-43 -42 0
45 44 0
-45 -44 0
-47 45 0
-47 46 0
47 -45 -46 0
-48 43 0
-48 47 0
48 -43 -47 0
-49 41 0
-49 48 0
49 -41 -48 0
-50 39 0
-50 49 0
50 -39 -49 0
-51 37 0
-51 50 0
51 -37 -50 0
-52 35 0
-52 51 0
52 -35 -51 0
-53 33 0
-53 52 0
53 -33 -52 0
-54 31 0
-54 53 0
54 -31 -53 0
-55 29 0
-55 54 0
55 -29 -54 0
56 -27 -55 0
56 27 55 0
-56 -27 55 0
-56 27 -55 0
57 56 0
-57 -56 0
58 -26 0
58 -57 0
-58 26 57 0
-59 8 0
-59 10 0
59 -8 -10 0
60 -59 -59 0
60 59 59 0
-60 -59 59 0
-60 59 -59 0
-61 6 0
-61 11 0
61 -6 -11 0
62 -61 -61 0
62 61 61 0
-62 -61 61 0
-62 61 -61 0
-63 60 0
-63 62 0
63 -60 -62 0
-64 4 0
-64 12 0
64 -4 -12 0
65 -64 -64 0
65 64 64 0
-65 -64 64 0
-65 64 -64 0
-66 63 0
-66 65 0
66 -63 -65 0
-67 2 0
-67 13 0
67 -2 -13 0
68 -67 -67 0
68 67 67 0
-68 -67 67 0
-68 67 -67 0
-69 66 0
-69 68 0
69 -66 -68 0
-71 70 0
-71 14 0
71 -70 -14 0
72 -71 -71 0
72 71 71 0
-72 -71 71 0
-72 71 -71 0
-73 69 0
-73 72 0
73 -69 -72 0
-75 74 0
-75 18 0
75 -74 -18 0
76 70 0
-76 -70 0
-77 76 0
-77 14 0
77 -76 -14 0
-78 74 0
-78 77 0
78 -74 -77 0
79 -75 -78 0
79 75 78 0
-79 -75 78 0
-79 75 -78 0
-80 73 0
-80 79 0
80 -73 -79 0
-82 81 0
-82 23 0
82 -81 -23 0
83 74 0
-83 -74 0
-84 83 0
-84 77 0
84 -83 -77 0
-85 81 0
-85 84 0
85 -81 -84 0
86 -82 -85 0
86 82 85 0
-86 -82 85 0
-86 82 -85 0
-87 80 0
-87 86 0
87 -80 -86 0
-88 44 0
-88 46 0
88 -44 -46 0
89 81 0
-89 -81 0
-90 89 0
-90 84 0
90 -89 -84 0
-91 44 0
-91 90 0
91 -44 -90 0
92 -88 -91 0
92 88 91 0
-92 -88 91 0
-92 88 -91 0
-93 87 0
-93 92 0
93 -87 -92 0
-94 42 0
-94 47 0
94 -42 -47 0
-95 45 0
-95 90 0
95 -45 -90 0
-96 42 0
-96 95 0
96 -42 -95 0
97 -94 -96 0
97 94 96 0
-97 -94 96 0
-97 94 -96 0
-98 93 0
-98 97 0
98 -93 -97 0
-99 40 0
-99 48 0
99 -40 -48 0
-100 43 0
-100 95 0
100 -43 -95 0
-101 40 0
-101 100 0
101 -40 -100 0
102 -99 -101 0
102 99 101 0
-102 -99 101 0
-102 99 -101 0
-103 98 0
-103 102 0
103 -98 -102 0
104 -38 0
104 -49 0
-104 38 49 0
-105 41 0
-105 100 0
105 -41 -100 0
-106 38 0
-106 105 0
106 -38 -105 0
107 -104 -106 0
107 104 106 0
-107 -104 106 0
-107 104 -106 0
-108 103 0
-108 107 0
108 -103 -107 0
-109 36 0
-109 50 0
109 -36 -50 0
-110 39 0
-110 105 0
110 -39 -105 0
-111 36 0
-111 110 0
111 -36 -110 0
112 -109 -111 0
112 109 111 0
-112 -109 111 0
-112 109 -111 0
-113 108 0
-113 112 0
113 -108 -112 0
-114 34 0
-114 51 0
114 -34 -51 0
-115 37 0
-115 110 0
115 -37 -110 0
-116 34 0
-116 115 0
116 -34 -115 0
117 -114 -116 0
117 114 116 0
-117 -114 116 0
-117 114 -116 0
-118 113 0
-118 117 0
118 -113 -117 0
-119 32 0
-119 52 0
119 -32 -52 0
-120 35 0
-120 115 0
120 -35 -115 0
-121 32 0
-121 120 0
121 -32 -120 0
122 -119 -121 0
122 119 121 0
-122 -119 121 0
-122 119 -121 0
-123 118 0
-123 122 0
123 -118 -122 0
-124 30 0
-124 53 0
124 -30 -53 0
-125 33 0
-125 120 0
125 -33 -120 0
-126 30 0
-126 125 0
126 -30 -125 0
127 -124 -126 0
127 124 126 0
-127 -124 126 0
-127 124 -126 0
-128 123 0
-128 127 0
128 -123 -127 0
-129 28 0
-129 54 0
129 -28 -54 0
-130 31 0
-130 125 0
130 -31 -125 0
-131 28 0
-131 130 0
131 -28 -130 0
132 -129 -131 0
132 129 131 0
-132 -129 131 0
-132 129 -131 0
-133 128 0
-133 132 0
133 -128 -132 0
-136 29 0
-136 130 0
136 -29 -130 0
-137 135 0
-137 136 0
137 -135 -136 0
138 -134 -137 0
138 134 137 0
-138 -134 137 0
-138 134 -137 0
-139 133 0
-139 138 0
139 -133 -138 0
140 135 0
-140 -135 0
-141 140 0
-141 55 0
141 -140 -55 0
-142 140 0
-142 136 0
142 -140 -136 0
143 -141 -142 0
143 141 142 0
-143 -141 142 0
-143 141 -142 0
-144 139 0
-144 143 0
144 -139 -143 0
145 -58 0
145 -144 0
-145 58 144 0
145 0
